NAME: tsp_214
COMMENT: Random TSP instance
TYPE: TSP
DIMENSION: 50
EDGE_WEIGHT_TYPE: EUC_2D
NODE_COORD_SECTION
1 525 784
2 903 332
3 806 683
4 230 398
5 439 274
6 937 565
7 860 834
8 901 570
9 837 173
10 879 386
11 642 751
12 91 330
13 307 23
14 221 904
15 313 196
16 991 148
17 608 930
18 681 881
19 941 608
20 328 80
21 66 700
22 493 382
23 998 7
24 425 356
25 856 902
26 261 381
27 592 546
28 554 165
29 420 128
30 733 332
31 334 858
32 704 639
33 46 725
34 339 179
35 774 244
36 476 511
37 610 211
38 805 887
39 825 513
40 402 178
41 241 994
42 936 129
43 451 218
44 803 783
45 791 792
46 791 31
47 718 798
48 23 264
49 135 812
50 969 61
